15 75 
50 43 
78 65 
28 68 
77 4 
87 33 
43 33 
74 77 
32 28 
18 28 
17 78 
84 8 
94 41 
67 76 
69 35 
83 84 
62 33 
27 92 
51 7 
60 80 
63 47 
13 59 
32 40 
36 64 
20 7 
44 37 
37 28 
45 31 
22 12 
59 91 
99 95 
27 61 
80 6 
53 31 
65 14 
12 81 
13 77 
40 46 
69 76 
10 89 
83 7 
78 20 
35 24 
4 57 
88 63 
0 88 
58 79 
1 39 
85 55 
22 51 
